79 92
23 14
14 37
45 56
18 89
18 14
82 54
72 82
18 77
83 57
74 36
47 24
86 48
0 27
65 48
6 95
24 73
72 48
91 59
21 3
60 94
92 46
35 20
14 36
52 42
18 42
6 62
37 35
48 78
27 71
16 64
19 90
26 39
35 40
14 86
38 34
40 70
75 61
16 41
64 62
52 78
68 31
62 81
55 38
14 99
63 19
89 35
71 45
90 22
87 20
86 74
24 81
97 45
26 98
39 96
96 50
40 72
31 45
88 7
55 26
76 35
49 90
55 65
26 3
94 80
65 17
32 32
52 99
66 64
46 3
41 91
20 65
54 63
65 97
73 34
41 61
94 22
14 26
71 58
12 30
90 2
69 16
11 83
28 57
68 27
37 22
57 32
34 96
94 84
68 52
98 59
50 66
83 88
56 60
56 27
71 47
82 84
91 61
18 78
91 71
